20 50
1000
377 649
69 703
111 793
370 333
999 448
226 845
990 722
624 643
478 894
359 416
219 272
638 489
939 456
819 643
266 275
668 52
835 567
667 960
652 320
947 215
766 111
936 326
874 715
448 119
177 360
974 543
428 543
846 263
551 495
225 245
598 647
235 118
673 650
467 142
854 800
18 561
50 142
794 20
564 983
968 614
733 947
601 347
302 259
349 888
802 361
167 261
99 711
31 87
652 647
701 106
352 296
147 450
753 432
84 720
18 733
976 227
418 255
907 803
225 370
320 541
232 707
166 415
50 950
852 392
577 231
89 489
665 519
4 252
76 269
267 461
